sat
(:added-eqs                       11593
 :arith-eq-adapter                621
 :arith-bound-propagations-lp     227
 :arith-conflicts                 1166
 :arith-diseq                     2214
 :arith-fixed-eqs                 905
 :arith-gcd-calls                 21
 :arith-grobner-calls             231
 :arith-grobner-conflicts         36
 :arith-horner-calls              63
 :arith-horner-cross-nested-forms 4340
 :arith-lower                     2686
 :arith-make-feasible             2140
 :arith-max-columns               1407
 :arith-max-rows                  643
 :arith-nla-add-bounds            92
 :arith-nla-lemmas                647
 :arith-nla-propagate-bounds      354
 :arith-nla-propagate-eq          9008
 :arith-nra-calls                 31
 :arith-offset-eqs                4099
 :arith-patches                   21
 :arith-patches-success           21
 :arith-upper                     3563
 :binary-propagations             9053
 :card2bv-rewrites                1
 :conflicts                       252
 :decisions                       20301
 :del-clause                      838
 :elim-unconstrained              41
 :final-checks                    455
 :max-memory                      32.63
 :memory                          19.85
 :minimized-lits                  366
 :mk-bool-var                     4170
 :mk-clause                       1667
 :mk-clause-binary                18855
 :nlsat-conflicts                 2864
 :nlsat-decisions                 45
 :nlsat-propagations              184304
 :nlsat-stages                    103039
 :num-allocs                      686265423
 :num-checks                      1
 :propagations                    15781
 :restarts                        2
 :rlimit-count                    2339528
 :time                            1.04
 :total-time                      1.05)
